c Random generated cnf formula, satisfiable: true
p cnf 10 50
9 -7 4 0
9 -7 -6 0
4 1 -9 0
4 10 -7 0
7 9 2 0
-7 5 1 0
5 -6 -7 0
-4 -6 5 0
2 5 7 0
10 9 -6 0
-3 -2 9 0
2 8 -4 0
-2 -1 -5 0
-1 -4 5 0
8 1 -4 0
2 -9 7 0
-7 -10 -2 0
7 -1 9 0
3 8 2 0
-6 4 -1 0
-3 -1 -2 0
-10 -3 -9 0
-7 -5 -9 0
-9 -7 4 0
4 1 2 0
6 4 -8 0
7 2 5 0
4 2 -9 0
10 -5 -4 0
-2 -4 -9 0
-8 4 7 0
-7 -8 3 0
10 4 -7 0
-8 5 -10 0
-4 3 -5 0
-7 6 4 0
-4 9 1 0
-3 8 -10 0
-6 -4 2 0
4 -3 -9 0
-2 -4 3 0
7 10 -2 0
1 5 4 0
-10 -3 5 0
5 10 -8 0
4 5 10 0
-8 -3 2 0
-4 -8 -1 0
9 -4 -2 0
-3 -2 4 0
